3
32
57
40	32
1	3	5	11	14	6	23	4	
2	3	5	13	5	12	4	12	
3	3	6	8	4	7	32	4	
4	2	10	5	19	3	
5	1	10	7	
6	2	4	11	14	2	
7	3	7	14	8	5	21	2	
8	3	13	6	15	5	8	4	
9	3	11	8	5	7	25	4	
10	1	5	10	
11	3	7	14	7	9	14	7	
12	1	25	3	
13	1	17	3	
14	2	6	10	19	2	
15	1	5	13	
16	1	30	3	
17	2	8	6	18	3	
18	1	22	3	
19	3	7	11	6	8	14	5	
20	1	10	8	
21	2	7	12	9	7	
22	1	5	9	
23	2	12	6	19	2	
24	1	27	3	
25	1	7	7	
26	2	7	12	12	7	
27	1	12	3	
28	1	5	12	
29	2	5	7	27	3	
30	1	8	6	
31	1	29	3	
32	2	6	14	23	2	
